SDVRP instances/p03/p03_1090_tsplib0_splitx10_0.vrp
NAME:.\SDVRP_splitx10_
BEST_KNOWN: 0
COMMENT: 0
DIMENSION: 609
CAPACITY: 2000
EDGE_WEIGHT_FORMAT: FUNCTION
EDGE_WEIGHT_TYPE: EXACT_2D
NODE_COORD_SECTION
1 0.00000 0.00000
2 6 14
3 6 14
4 6 14
5 6 14
6 6 14
7 6 14
8 6 14
9 6 14
10 0 -18
11 0 -18
12 0 -18
13 0 -18
14 20 10
15 20 10
16 20 10
17 20 10
18 20 10
19 20 -15
20 20 -15
21 20 -15
22 20 -15
23 20 -15
24 20 -15
25 20 -15
26 20 -15
27 -20 -5
28 -20 -5
29 -20 -5
30 -20 -5
31 -20 -5
32 -20 -5
33 -20 -5
34 -10 -5
35 -10 -5
36 -10 -5
37 -10 -5
38 -10 -5
39 -10 -5
40 -10 -5
41 -10 -5
42 -10 -5
43 -15 15
44 -15 15
45 -15 15
46 -15 15
47 -15 15
48 -15 15
49 -15 15
50 -15 15
51 -25 8
52 -25 8
53 -25 8
54 -25 8
55 -25 8
56 -25 8
57 20 25
58 20 25
59 20 25
60 20 25
61 -5 25
62 -5 25
63 -5 25
64 -5 25
65 -15 30
66 -15 30
67 -15 30
68 -15 30
69 -15 30
70 -15 30
71 -15 30
72 -15 30
73 -15 30
74 15 0
75 15 0
76 15 0
77 15 0
78 -5 -10
79 -5 -10
80 -5 -10
81 -5 -10
82 -5 -10
83 -20 -25
84 -20 -25
85 -20 -25
86 -20 -25
87 -20 -25
88 -5 -30
89 -5 -30
90 -5 -30
91 -5 -30
92 -5 -30
93 -25 -15
94 -25 -15
95 -25 -15
96 -25 -15
97 -25 -15
98 -25 -15
99 -30 -5
100 -30 -5
101 -30 -5
102 -30 -5
103 -15 5
104 -15 5
105 -15 5
106 -15 5
107 -20 25
108 -20 25
109 -20 25
110 -20 25
111 -20 25
112 -20 25
113 -20 25
114 -20 25
115 10 30
116 10 30
117 10 30
118 10 30
119 10 30
120 10 30
121 10 30
122 10 -15
123 10 -15
124 10 -15
125 10 -15
126 10 -15
127 10 -25
128 10 -25
129 10 -25
130 10 -25
131 20 -30
132 20 -30
133 20 -30
134 20 -30
135 20 -30
136 30 0
137 30 0
138 30 0
139 30 0
140 30 0
141 30 0
142 30 -15
143 30 -15
144 30 -15
145 30 -15
146 30 -15
147 30 -15
148 30 -15
149 30 -15
150 10 -5
151 10 -5
152 10 -5
153 10 -5
154 10 -5
155 10 -5
156 10 -5
157 10 -5
158 0 5
159 0 5
160 0 5
161 0 5
162 6 2
163 6 2
164 6 2
165 6 2
166 6 2
167 6 2
168 29 7
169 29 7
170 29 7
171 5 25
172 5 25
173 5 25
174 5 25
175 5 25
176 -4 17
177 -4 17
178 -4 17
179 -4 17
180 -4 17
181 -4 17
182 -4 17
183 -4 17
184 0 34
185 0 34
186 0 34
187 0 34
188 0 34
189 0 34
190 0 34
191 0 34
192 18 17
193 18 17
194 18 17
195 18 17
196 18 17
197 18 17
198 30 20
199 30 20
200 30 20
201 30 20
202 28 30
203 28 30
204 28 30
205 28 30
206 28 30
207 28 30
208 28 30
209 28 30
210 -33 25
211 -33 25
212 -33 25
213 -33 25
214 -33 25
215 -33 25
216 -15 -15
217 -15 -15
218 -15 -15
219 -15 -15
220 -15 -15
221 -15 -15
222 -30 -30
223 -30 -30
224 -30 -30
225 -30 -30
226 -30 -30
227 -30 -30
228 -30 -30
229 25 -23
230 25 -23
231 25 -23
232 25 -23
233 25 -23
234 25 -23
235 25 -23
236 5 -10
237 5 -10
238 5 -10
239 5 -10
240 5 -10
241 5 -10
242 5 -10
243 7 -28
244 7 -28
245 -11 -23
246 -11 -23
247 -12 -32
248 -12 -32
249 -12 -32
250 -12 -32
251 -24 -21
252 -24 -21
253 -24 -21
254 -24 -21
255 -24 -21
256 -24 -21
257 -29 3
258 -29 3
259 -29 3
260 -29 3
261 -33 13
262 -33 13
263 -33 13
264 -33 13
265 -33 13
266 -27 21
267 -27 21
268 -27 21
269 -27 21
270 -27 21
271 -27 21
272 -27 21
273 -27 21
274 -22 17
275 -22 17
276 -22 17
277 -22 17
278 -22 17
279 -22 17
280 -22 17
281 -29 33
282 -29 33
283 -29 33
284 -29 33
285 -29 33
286 -29 33
287 -29 33
288 -29 33
289 12 12
290 12 12
291 12 12
292 12 12
293 12 12
294 12 12
295 12 12
296 12 12
297 12 12
298 14 23
299 14 23
300 14 23
301 14 23
302 14 23
303 14 23
304 -8 8
305 -8 8
306 -8 8
307 -8 8
308 -8 8
309 -8 8
310 2 -4
311 2 -4
312 2 -4
313 22 -6
314 22 -6
315 22 -6
316 22 -6
317 22 -6
318 22 -6
319 22 -6
320 22 -6
321 28 -12
322 28 -12
323 28 -12
324 28 -12
325 28 -12
326 28 -12
327 28 -12
328 28 -12
329 28 -12
330 18 -23
331 18 -23
332 18 -23
333 18 -23
334 18 -23
335 18 -23
336 18 -23
337 -3 -23
338 -3 -23
339 -3 -23
340 -3 -23
341 -3 -23
342 -3 -23
343 -3 -23
344 1 -9
345 1 -9
346 1 -9
347 1 -9
348 1 -9
349 -14 -11
350 -14 -11
351 -14 -11
352 -14 -11
353 -18 -1
354 -18 -1
355 -18 -1
356 -18 -1
357 -18 -1
358 -23 -11
359 -23 -11
360 -23 -11
361 -23 -11
362 -23 -11
363 -11 23
364 -11 23
365 -11 23
366 -8 34
367 -8 34
368 -8 34
369 -20 42
370 -20 42
371 -20 42
372 -20 42
373 -20 42
374 -20 42
375 27 42
376 27 42
377 27 42
378 27 42
379 27 42
380 27 42
381 14 38
382 14 38
383 14 38
384 14 38
385 14 38
386 14 38
387 32 -30
388 32 -30
389 32 -30
390 32 -30
391 32 -30
392 32 -30
393 32 -30
394 32 -30
395 21 4
396 21 4
397 21 4
398 21 4
399 2 12
400 2 12
401 2 12
402 2 12
403 2 12
404 2 12
405 2 12
406 2 12
407 2 12
408 2 21
409 2 21
410 2 21
411 2 21
412 2 21
413 2 21
414 2 21
415 2 21
416 2 21
417 22 33
418 22 33
419 22 33
420 22 33
421 22 33
422 22 33
423 12 -19
424 12 -19
425 12 -19
426 12 -19
427 12 -19
428 12 -19
429 9 -18
430 9 -18
431 9 -18
432 9 -18
433 9 -18
434 9 -18
435 9 -18
436 11 -22
437 11 -22
438 11 -22
439 11 -22
440 11 -22
441 11 -22
442 11 -22
443 11 -22
444 11 -22
445 11 -22
446 14 -24
447 14 -24
448 14 -24
449 14 -24
450 14 -24
451 14 7
452 14 7
453 14 7
454 14 7
455 18 8
456 18 8
457 18 8
458 18 8
459 18 8
460 18 8
461 26 17
462 26 17
463 26 17
464 26 17
465 26 17
466 26 17
467 26 17
468 22 13
469 22 13
470 22 13
471 22 13
472 22 13
473 21 2
474 21 2
475 21 2
476 21 2
477 21 2
478 21 2
479 21 2
480 21 2
481 20 19
482 20 19
483 20 19
484 20 19
485 20 19
486 20 19
487 -20 12
488 -20 12
489 -20 12
490 -20 12
491 -20 12
492 -21 2
493 -21 2
494 -21 2
495 -21 2
496 -21 2
497 -21 2
498 -21 2
499 -21 2
500 -24 -4
501 -24 -4
502 -24 -4
503 -24 -4
504 -19 -13
505 -19 -13
506 -19 -13
507 -19 -13
508 -19 -13
509 -19 -13
510 -19 -13
511 -19 -13
512 -19 -13
513 -31 -17
514 -31 -17
515 -31 -17
516 -31 -17
517 -31 -17
518 -31 -17
519 -7 -17
520 -7 -17
521 -7 -17
522 -7 -17
523 -7 -17
524 -7 -17
525 -7 -17
526 -7 -17
527 -7 -17
528 -9 17
529 -9 17
530 -9 17
531 -9 17
532 -9 17
533 -9 17
534 -9 17
535 -9 17
536 -9 17
537 -9 0
538 -9 0
539 -9 0
540 -9 0
541 -9 0
542 -9 0
543 -9 0
544 -9 0
545 -4 32
546 -4 32
547 -4 32
548 -4 32
549 -4 32
550 -4 32
551 -4 32
552 -20 -16
553 -20 -16
554 -20 -16
555 -20 -16
556 -20 -16
557 -13 -13
558 -13 -13
559 -13 -13
560 -13 -13
561 -13 -13
562 -17 -11
563 -17 -11
564 -17 -11
565 -17 -11
566 -17 -11
567 -17 -11
568 -9 -8
569 -9 -8
570 -9 -8
571 -9 -8
572 -9 -8
573 -10 -11
574 -10 -11
575 -10 -11
576 -10 -11
577 -10 -11
578 -10 -11
579 -10 -11
580 -10 -11
581 -13 -8
582 -13 -8
583 -13 -8
584 -13 -8
585 -13 -8
586 -13 -8
587 -13 -8
588 -10 -14
589 -10 -14
590 -10 -14
591 -10 -14
592 -10 -14
593 -10 -14
594 -16 -14
595 -16 -14
596 -16 -14
597 -16 -14
598 -16 -14
599 -16 -14
600 -15 -9
601 -15 -9
602 -15 -9
603 -15 -9
604 -15 -9
605 -17 -17
606 -17 -17
607 -17 -17
608 -17 -17
609 -17 -17
DEMAND_SECTION
1 0
2 400
3 400
4 400
5 200
6 100
7 20
8 20
9 20
10 400
11 400
12 20
13 10
14 400
15 100
16 20
17 20
18 20
19 400
20 400
21 200
22 20
23 20
24 20
25 20
26 10
27 400
28 400
29 400
30 400
31 20
32 20
33 10
34 400
35 400
36 400
37 200
38 100
39 20
40 20
41 20
42 10
43 400
44 400
45 100
46 20
47 20
48 20
49 20
50 10
51 200
52 100
53 20
54 20
55 20
56 10
57 400
58 100
59 20
60 10
61 200
62 20
63 20
64 10
65 400
66 400
67 400
68 200
69 20
70 20
71 20
72 20
73 10
74 400
75 400
76 20
77 10
78 400
79 400
80 100
81 20
82 20
83 400
84 400
85 200
86 20
87 10
88 400
89 400
90 400
91 100
92 20
93 400
94 200
95 20
96 20
97 20
98 10
99 200
100 100
101 20
102 10
103 400
104 400
105 200
106 10
107 400
108 400
109 400
110 200
111 100
112 20
113 20
114 20
115 400
116 400
117 200
118 20
119 20
120 20
121 10
122 200
123 100
124 20
125 20
126 20
127 400
128 400
129 400
130 10
131 400
132 400
133 400
134 20
135 20
136 400
137 400
138 200
139 100
140 20
141 10
142 400
143 400
144 400
145 200
146 20
147 20
148 20
149 10
150 400
151 400
152 400
153 100
154 20
155 20
156 20
157 10
158 200
159 20
160 20
161 10
162 400
163 400
164 400
165 200
166 20
167 20
168 400
169 20
170 20
171 200
172 100
173 20
174 20
175 20
176 400
177 400
178 400
179 200
180 100
181 20
182 20
183 20
184 400
185 400
186 400
187 200
188 20
189 20
190 20
191 20
192 400
193 400
194 400
195 200
196 100
197 20
198 400
199 100
200 20
201 20
202 400
203 400
204 400
205 200
206 100
207 20
208 20
209 10
210 400
211 400
212 100
213 20
214 20
215 20
216 400
217 400
218 400
219 200
220 20
221 20
222 400
223 400
224 100
225 20
226 20
227 20
228 10
229 400
230 400
231 100
232 20
233 20
234 20
235 10
236 400
237 400
238 400
239 200
240 100
241 20
242 10
243 400
244 100
245 200
246 100
247 400
248 400
249 400
250 10
251 400
252 400
253 400
254 20
255 20
256 20
257 400
258 400
259 400
260 400
261 400
262 200
263 20
264 20
265 10
266 400
267 400
268 100
269 20
270 20
271 20
272 20
273 10
274 400
275 400
276 20
277 20
278 20
279 20
280 10
281 400
282 400
283 400
284 200
285 100
286 20
287 20
288 10
289 400
290 400
291 200
292 100
293 20
294 20
295 20
296 20
297 10
298 400
299 400
300 400
301 20
302 20
303 20
304 400
305 400
306 400
307 20
308 20
309 10
310 200
311 100
312 20
313 400
314 400
315 400
316 400
317 20
318 20
319 20
320 10
321 400
322 400
323 400
324 100
325 20
326 20
327 20
328 20
329 10
330 400
331 400
332 400
333 100
334 20
335 20
336 20
337 400
338 200
339 20
340 20
341 20
342 20
343 10
344 400
345 400
346 400
347 100
348 20
349 400
350 400
351 20
352 20
353 400
354 200
355 100
356 20
357 20
358 400
359 400
360 400
361 400
362 10
363 400
364 200
365 20
366 400
367 200
368 100
369 400
370 200
371 20
372 20
373 20
374 10
375 400
376 200
377 100
378 20
379 20
380 20
381 400
382 400
383 100
384 20
385 20
386 20
387 400
388 400
389 400
390 200
391 100
392 20
393 20
394 20
395 200
396 100
397 20
398 20
399 400
400 400
401 400
402 400
403 100
404 20
405 20
406 20
407 10
408 400
409 400
410 400
411 200
412 100
413 20
414 20
415 20
416 20
417 400
418 400
419 400
420 400
421 100
422 10
423 400
424 400
425 400
426 400
427 20
428 10
429 400
430 400
431 400
432 200
433 100
434 20
435 20
436 400
437 400
438 400
439 400
440 100
441 20
442 20
443 20
444 20
445 10
446 200
447 20
448 20
449 20
450 20
451 400
452 200
453 100
454 20
455 400
456 400
457 200
458 100
459 20
460 10
461 400
462 400
463 400
464 100
465 20
466 20
467 10
468 400
469 400
470 200
471 100
472 10
473 400
474 400
475 400
476 200
477 20
478 20
479 20
480 20
481 400
482 400
483 400
484 20
485 20
486 10
487 400
488 200
489 20
490 20
491 10
492 400
493 400
494 400
495 20
496 20
497 20
498 20
499 10
500 400
501 400
502 400
503 20
504 400
505 400
506 400
507 400
508 100
509 20
510 20
511 20
512 10
513 400
514 400
515 400
516 200
517 20
518 20
519 400
520 400
521 400
522 400
523 100
524 20
525 20
526 20
527 10
528 400
529 400
530 400
531 200
532 20
533 20
534 20
535 20
536 10
537 400
538 400
539 400
540 200
541 100
542 20
543 20
544 20
545 200
546 100
547 20
548 20
549 20
550 20
551 10
552 400
553 400
554 400
555 200
556 100
557 400
558 400
559 200
560 100
561 20
562 400
563 20
564 20
565 20
566 20
567 10
568 400
569 400
570 400
571 400
572 100
573 400
574 400
575 400
576 20
577 20
578 20
579 20
580 10
581 400
582 400
583 400
584 200
585 20
586 20
587 20
588 400
589 400
590 400
591 200
592 20
593 10
594 400
595 400
596 20
597 20
598 20
599 20
600 400
601 400
602 400
603 200
604 20
605 200
606 100
607 20
608 20
609 20
DEPOT_SECTION
1
-1
EOF