SDVRP instances/p03/p03_1090_tsplib0_splitx10_0.sol
608 -2 6 5 3 289 288 292 293 290 -4 7 1 8 398 400 401 402 403 405 406 -9 87 90 88 89 91 339 337 -12 11 10 449 445 446 447 448 335 330 329 333 331 -21 24 20 18 19 322 327 323 320 -25 22 23 230 232 231 228 131 134 132 130 133 334 332 -29 32 28 26 27 31 30 -36 33 35 38 40 41 39 34 37 536 -47 46 45 42 43 44 486 487 105 103 -53 54 50 51 55 52 263 261 264 260 262 272 265 266 268 270 271 278 275 279 490 488 489 -56 418 419 416 417 -58 59 57 421 420 377 379 375 374 376 378 385 381 380 382 383 384 -60 62 61 63 187 189 186 190 188 183 116 115 114 117 120 119 118 -65 69 66 72 70 68 64 71 364 363 362 -67 373 368 372 370 369 371 287 210 214 213 212 211 209 267 269 -73 459 455 458 454 451 450 453 452 -74 76 75 475 477 476 478 473 479 472 474 -78 77 568 569 570 -80 81 79 521 518 519 523 525 520 522 524 526 -82 84 83 86 85 223 225 222 224 221 226 227 -97 95 94 96 92 93 252 251 254 250 255 253 -99 101 98 100 258 259 257 256 -104 102 492 491 495 493 496 497 494 498 -108 284 280 285 286 282 281 283 48 49 308 306 -110 113 112 111 109 107 106 276 273 274 277 -121 125 122 443 435 437 438 436 444 440 441 -123 124 424 425 427 426 422 423 240 241 239 238 -136 139 135 140 137 138 168 167 169 397 395 396 394 -149 151 150 236 235 -155 154 152 318 316 319 313 312 314 315 317 -156 153 144 146 142 145 141 143 148 147 325 321 326 328 324 -157 158 160 159 415 408 407 409 410 411 414 413 412 -163 162 165 166 161 164 -171 185 184 546 550 549 547 545 548 544 366 365 367 -174 173 172 170 298 302 301 300 299 297 192 196 -181 182 178 180 179 177 176 175 399 404 -194 191 193 195 484 482 480 485 483 295 294 296 -205 208 207 202 204 201 206 203 481 -234 233 229 389 386 387 393 390 392 388 391 -237 434 429 433 428 432 430 431 -242 243 128 126 127 129 439 442 310 -245 244 249 247 246 248 338 342 341 340 336 -291 197 200 198 199 466 460 464 462 463 465 461 -303 305 538 541 543 539 537 540 542 -307 304 531 528 530 529 527 532 533 534 535 -309 311 344 346 347 343 345 -350 351 595 597 552 554 555 553 551 608 607 606 605 604 -354 356 355 352 353 501 500 499 502 -357 361 517 513 514 512 515 516 563 564 562 565 -360 359 358 561 601 -456 457 13 16 14 15 17 470 467 469 471 468 -509 510 503 505 504 511 506 508 507 566 602 603 -557 559 218 219 216 596 598 594 593 -558 220 215 217 579 574 573 578 575 577 576 -560 556 588 592 590 591 589 587 -571 567 581 585 584 582 586 583 580 -572 349 348 600 599 0 





OBJ=
3168.017
BEST_KNOWN=
0.000